
Gurobi 13.0.2 (win64) logging started Thu Jul 23 05:20:20 2026

Set parameter LogFile to value "E:\codes\ExactEBRP\results\gf_cplex_equivalent_gurobi_replica_round28\runs\stage2__high_imbalance_seed3202__c3_replica__300s\external\native_logs\R.1.0.0.0.1.0.0.1.0.0_terminal_mip.gurobi.log"
Gurobi Optimizer version 13.0.2 build v13.0.2rc1 (win64 - Windows 10.0 (19045.2))

CPU model: 12th Gen Intel(R) Core(TM) i7-12700KF, instruction set [SSE2|AVX|AVX2]
Thread count: 12 physical cores, 20 logical processors, using up to 1 threads

Non-default parameters:
TimeLimit  177.8491901
MIPGap  0
MIPGapAbs  0
LogToConsole  0
Threads  1

Optimize a model with 11895 rows, 3372 columns and 67322 nonzeros (Min)
Model fingerprint: 0xb7879a97
Model has 21 linear objective coefficients
Variable types: 1683 continuous, 1689 integer (1489 binary)
Coefficient statistics:
  Matrix range     [1e-02, 2e+04]
  Objective range  [1e-02, 1e+00]
  Bounds range     [5e-01, 2e+03]
  RHS range        [5e-01, 5e+04]

Presolve removed 2401 rows and 94 columns
Presolve time: 0.19s
Presolved: 9494 rows, 3278 columns, 57997 nonzeros
Variable types: 1627 continuous, 1651 integer (1466 binary)

Root relaxation: objective 1.610791e+00, 3793 iterations, 0.19 seconds (0.49 work units)

    Nodes    |    Current Node    |     Objective Bounds      |     Work
 Expl Unexpl |  Obj  Depth IntInf | Incumbent    BestBd   Gap | It/Node Time

     0     0    1.61079    0  223          -    1.61079      -     -    0s
     0     0    1.65322    0  270          -    1.65322      -     -    0s
     0     0    1.69631    0  290          -    1.69631      -     -    1s
     0     0    1.69871    0  271          -    1.69871      -     -    1s
     0     0    1.70690    0  314          -    1.70690      -     -    1s
     0     0    1.71027    0  314          -    1.71027      -     -    1s
     0     0    1.72139    0  356          -    1.72139      -     -    2s
     0     0    1.72250    0  346          -    1.72250      -     -    2s
     0     0    1.72685    0  356          -    1.72685      -     -    2s
     0     0    1.72787    0  378          -    1.72787      -     -    3s
     0     0    1.73112    0  352          -    1.73112      -     -    3s
     0     0    1.73146    0  359          -    1.73146      -     -    3s
     0     0    1.73498    0  347          -    1.73498      -     -    3s
     0     0    1.73533    0  332          -    1.73533      -     -    4s
     0     0    1.73733    0  339          -    1.73733      -     -    4s
     0     0    1.73772    0  361          -    1.73772      -     -    4s
     0     0    1.74024    0  348          -    1.74024      -     -    4s
     0     0    1.74032    0  368          -    1.74032      -     -    5s
     0     0    1.74101    0  337          -    1.74101      -     -    5s
     0     0    1.74119    0  347          -    1.74119      -     -    5s
     0     0    1.74155    0  372          -    1.74155      -     -    6s
     0     0    1.74167    0  361          -    1.74167      -     -    6s
     0     0    1.74258    0  334          -    1.74258      -     -    6s
     0     0    1.74275    0  352          -    1.74275      -     -    6s
     0     0    1.74304    0  348          -    1.74304      -     -    7s
     0     0    1.74323    0  317          -    1.74323      -     -    7s
     0     0    1.74350    0  314          -    1.74350      -     -    7s
     0     0    1.74356    0  318          -    1.74356      -     -    8s
     0     0    1.74365    0  322          -    1.74365      -     -    8s
     0     0    1.74367    0  330          -    1.74367      -     -    8s
     0     0    1.74377    0  319          -    1.74377      -     -    8s
     0     0    1.74377    0  318          -    1.74377      -     -    8s
     0     0    1.74377    0  311          -    1.74377      -     -    9s
     0     2    1.74377    0  308          -    1.74377      -     -   10s

Cutting planes:
  Learned: 16
  Cover: 45
  Implied bound: 111
  Clique: 4
  MIR: 122
  StrongCG: 1
  Flow cover: 68
  GUB cover: 2
  Zero half: 2
  Network: 25
  RLT: 12
  Relax-and-lift: 44
  BQP: 3

Explored 39 nodes (71057 simplex iterations) in 14.61 seconds (30.51 work units)
Thread count was 1 (of 20 available processors)

Solution count 0

Model is infeasible
Best objective -, best bound -, gap -

User-callback calls 3495, time in user-callback 0.00 sec
